NAME : burma14.7417.tour
COMMENT : Cost = 0_7417
COMMENT : Found by LKH [Keld Helsgaun] Thu Nov 16 16:22:40 2017
TYPE : TOUR
DIMENSION : 23
TOUR_SECTION
1
2
15
11
16
9
17
13
18
10
19
14
20
7
21
3
22
12
6
5
4
23
8
-1
EOF
